(set-logic QF_S)
(declare-const x String)
(assert (= (str.len x) 32))
(assert (str.in.re x (re.* (str.to.re "EEEEmmmm{{{{"))))
(assert (str.in.re x (re.* (str.to.re "SSSS----EEEE{{{{"))))
(check-sat)
